Minimize
  cst_0_phi_113_flop + start_0_forkC_56_flop + cst_7_phi_n139_flop + forkC_5_cst_00_flop + forkC_5_cst_74_flop + forkC_5_phiC_037_flop + forkC_5_phiC_244_flop + load_4_MC_addr170_flop + load_7_LSQ_A165_flop + forkC_0_LSQ_A163_flop + branch_2_sink_2175_flop + branch_6_sink_3176_flop + branchC_8_sink_5178_flop + branchC_10_sink_6179_flop + store_0_LSQ_A166_flop + store_0_LSQ_A167_flop + forkC_1_LSQ_A164_flop + branchC_0_sink_0173_flop + branch_1_sink_1174_flop + branch_7_ret_0161_flop + branch_7_sink_4177_flop + ret_0_end_0182_flop + LSQ_A_load_719_flop + LSQ_A_end_0180_flop + MC_addr_load_415_flop + MC_addr_end_0181_flop
Subject to
  timePath_cst_0_out1 <= 4
  timePath_phi_1_in3 <= 4
  8 cst_0_phi_113_flop - timePath_cst_0_out1 + timePath_phi_1_in3 >= 0
  timePath_start_0_out1 <= 4
  timePath_forkC_5_in1 <= 4
  8 start_0_forkC_56_flop - timePath_start_0_out1 + timePath_forkC_5_in1 >= 0
  timePath_cst_7_out1 <= 4
  timePath_phi_n1_in1 <= 4
  8 cst_7_phi_n139_flop - timePath_cst_7_out1 + timePath_phi_n1_in1 >= 0
  timePath_forkC_5_out1 <= 4
  timePath_cst_0_in1 <= 4
  8 forkC_5_cst_00_flop + timePath_cst_0_in1 - timePath_forkC_5_out1 >= 0
  timePath_forkC_5_out3 <= 4
  timePath_cst_7_in1 <= 4
  8 forkC_5_cst_74_flop + timePath_cst_7_in1 - timePath_forkC_5_out3 >= 0
  timePath_forkC_5_out4 <= 4
  timePath_phiC_0_in3 <= 4
  8 forkC_5_phiC_037_flop - timePath_forkC_5_out4 + timePath_phiC_0_in3 >= 0
  timePath_forkC_5_out2 <= 4
  timePath_phiC_2_in3 <= 4
  8 forkC_5_phiC_244_flop - timePath_forkC_5_out2 + timePath_phiC_2_in3 >= 0
  timePath_phi_1_out1 <= 4
  timePath_fork_0_in1 <= 4
  -timePath_phi_1_out1 + timePath_fork_0_in1 >= -8
  timePath_load_4_out1 <= 4
  timePath_fork_10_in1 <= 4
  -timePath_load_4_out1 + timePath_fork_10_in1 >= -0
  timePath_load_7_out1 <= 4
  timePath_fork_11_in1 <= 4
  -timePath_load_7_out1 + timePath_fork_11_in1 >= -0
  timePath_cst_1_out1 <= 4
  timePath_icmp_8_in2 <= 4
  -timePath_cst_1_out1 + timePath_icmp_8_in2 >= -0
  timePath_icmp_8_out1 <= 4
  timePath_fork_1_in1 <= 4
  -timePath_icmp_8_out1 + timePath_fork_1_in1 >= -0
  timePath_cst_4_out1 <= 4
  timePath_branch_6_in1 <= 4
  -timePath_cst_4_out1 + timePath_branch_6_in1 >= -0
  timePath_forkC_0_out1 <= 4
  timePath_buffer_bx_op_0_in1 <= 4
  -timePath_forkC_0_out1 + timePath_buffer_bx_op_0_in1 >= -8
  timePath_buffer_bx_op_0_out1 <= 4
  timePath_forkC_1_in1 <= 4
  -timePath_buffer_bx_op_0_out1 + timePath_forkC_1_in1 >= -0
  timePath_phiC_0_out1 <= 4
  timePath_forkC_0_in1 <= 4
  timePath_forkC_0_in1 - timePath_phiC_0_out1 >= -0
  timePath_phi_n1_out1 <= 4
  timePath_fork_6_in1 <= 4
  -timePath_phi_n1_out1 + timePath_fork_6_in1 >= -0
  timePath_phiC_2_out1 <= 4
  timePath_forkC_7_in1 <= 4
  -timePath_phiC_2_out1 + timePath_forkC_7_in1 >= -8
  timePath_branch_2_out2 <= 4
  timePath_fork_8_in1 <= 4
  -timePath_branch_2_out2 + timePath_fork_8_in1 >= -0
  timePath_branch_2_out1 <= 4
  timePath_sink_2_in1 <= 4
  8 branch_2_sink_2175_flop - timePath_branch_2_out1 + timePath_sink_2_in1 >= 0
  timePath_branch_6_out2 <= 4
  timePath_phi_16_in3 <= 4
  -timePath_branch_6_out2 + timePath_phi_16_in3 >= -0
  timePath_branch_6_out1 <= 4
  timePath_sink_3_in1 <= 4
  8 branch_6_sink_3176_flop - timePath_branch_6_out1 + timePath_sink_3_in1 >= 0
  timePath_branchC_8_out2 <= 4
  timePath_forkC_9_in1 <= 4
  -timePath_branchC_8_out2 + timePath_forkC_9_in1 >= -0
  timePath_branchC_8_out1 <= 4
  timePath_sink_5_in1 <= 4
  8 branchC_8_sink_5178_flop - timePath_branchC_8_out1 + timePath_sink_5_in1 >= 0
  timePath_branchC_10_out2 <= 4
  timePath_phiC_2_in2 <= 4
  timePath_phiC_2_in2 - timePath_branchC_10_out2 >= -0
  timePath_branchC_10_out1 <= 4
  timePath_sink_6_in1 <= 4
  8 branchC_10_sink_6179_flop - timePath_branchC_10_out1 + timePath_sink_6_in1 >= 0
  timePath_fork_0_out2 <= 4
  timePath_load_4_in2 <= 4
  timePath_load_4_in2 - timePath_fork_0_out2 >= -0
  timePath_fork_0_out1 <= 4
  timePath_add_19_in1 <= 4
  -timePath_fork_0_out1 + timePath_add_19_in1 >= -0
  timePath_fork_1_out1 <= 4
  timePath_branch_2_in2 <= 4
  timePath_branch_2_in2 - timePath_fork_1_out1 >= -0
  timePath_fork_1_out2 <= 4
  timePath_branch_6_in2 <= 4
  timePath_branch_6_in2 - timePath_fork_1_out2 >= -0
  timePath_fork_1_out3 <= 4
  timePath_branchC_8_in2 <= 4
  timePath_branchC_8_in2 - timePath_fork_1_out3 >= -0
  timePath_fork_1_out4 <= 4
  timePath_phi_16_in1 <= 4
  -timePath_fork_1_out4 + timePath_phi_16_in1 >= -0
  timePath_fork_6_out2 <= 4
  timePath_phi_1_in1 <= 4
  timePath_phi_1_in1 - timePath_fork_6_out2 >= -0
  timePath_fork_6_out1 <= 4
  timePath_phiC_0_in1 <= 4
  timePath_phiC_0_in1 - timePath_fork_6_out1 >= -0
  timePath_fork_6_out3 <= 4
  timePath_phiC_2_in1 <= 4
  timePath_phiC_2_in1 - timePath_fork_6_out3 >= -0
  timePath_forkC_7_out1 <= 4
  timePath_cst_1_in1 <= 4
  timePath_cst_1_in1 - timePath_forkC_7_out1 >= -8
  timePath_forkC_7_out4 <= 4
  timePath_cst_4_in1 <= 4
  timePath_cst_4_in1 - timePath_forkC_7_out4 >= -8
  timePath_forkC_7_out3 <= 4
  timePath_branchC_8_in1 <= 4
  timePath_branchC_8_in1 - timePath_forkC_7_out3 >= -0
  timePath_forkC_7_out2 <= 4
  timePath_branchC_10_in1 <= 4
  timePath_branchC_10_in1 - timePath_forkC_7_out2 >= -0
  timePath_forkC_7_out5 <= 4
  timePath_cst_5_in1 <= 4
  -timePath_forkC_7_out5 + timePath_cst_5_in1 >= -0
  timePath_forkC_7_out6 <= 4
  timePath_cst_6_in1 <= 4
  -timePath_forkC_7_out6 + timePath_cst_6_in1 >= -0
  timePath_fork_10_out1 <= 4
  timePath_load_7_in2 <= 4
  timePath_load_7_in2 - timePath_fork_10_out1 >= -0
  timePath_fork_10_out2 <= 4
  timePath_store_0_in2 <= 4
  -timePath_fork_10_out2 + timePath_store_0_in2 >= -0
  timePath_fork_11_out1 <= 4
  timePath_icmp_8_in1 <= 4
  timePath_icmp_8_in1 - timePath_fork_11_out1 >= -0
  timePath_fork_11_out2 <= 4
  timePath_branch_2_in1 <= 4
  timePath_branch_2_in1 - timePath_fork_11_out2 >= -0
  timePath_mul_10_out1 <= 4
  timePath_add_11_in1 <= 4
  -timePath_mul_10_out1 + timePath_add_11_in1 >= -0
  timePath_cst_2_out1 <= 4
  timePath_add_11_in2 <= 4
  -timePath_cst_2_out1 + timePath_add_11_in2 >= -0
  timePath_add_11_out1 <= 4
  timePath_mul_12_in1 <= 4
  -timePath_add_11_out1 + timePath_mul_12_in1 >= -0
  timePath_mul_12_out1 <= 4
  timePath_add_13_in1 <= 4
  -timePath_mul_12_out1 + timePath_add_13_in1 >= -0
  timePath_cst_3_out1 <= 4
  timePath_add_13_in2 <= 4
  -timePath_cst_3_out1 + timePath_add_13_in2 >= -0
  timePath_add_13_out1 <= 4
  timePath_mul_14_in1 <= 4
  -timePath_add_13_out1 + timePath_mul_14_in1 >= -0
  timePath_mul_14_out1 <= 4
  timePath_phi_16_in2 <= 4
  -timePath_mul_14_out1 + timePath_phi_16_in2 >= -0
  timePath_fork_8_out1 <= 4
  timePath_mul_10_in1 <= 4
  timePath_mul_10_in1 - timePath_fork_8_out1 >= -0
  timePath_fork_8_out2 <= 4
  timePath_mul_10_in2 <= 4
  timePath_mul_10_in2 - timePath_fork_8_out2 >= -0
  timePath_fork_8_out3 <= 4
  timePath_mul_12_in2 <= 4
  timePath_mul_12_in2 - timePath_fork_8_out3 >= -0
  timePath_fork_8_out4 <= 4
  timePath_mul_14_in2 <= 4
  timePath_mul_14_in2 - timePath_fork_8_out4 >= -0
  timePath_forkC_9_out1 <= 4
  timePath_cst_2_in1 <= 4
  timePath_cst_2_in1 - timePath_forkC_9_out1 >= -0
  timePath_forkC_9_out2 <= 4
  timePath_cst_3_in1 <= 4
  timePath_cst_3_in1 - timePath_forkC_9_out2 >= -0
  timePath_phi_16_out1 <= 4
  timePath_fork_2_in1 <= 4
  -timePath_phi_16_out1 + timePath_fork_2_in1 >= -0
  timePath_cst_5_out1 <= 4
  timePath_add_19_in2 <= 4
  -timePath_cst_5_out1 + timePath_add_19_in2 >= -0
  timePath_add_19_out1 <= 4
  timePath_fork_3_in1 <= 4
  -timePath_add_19_out1 + timePath_fork_3_in1 >= -0
  timePath_cst_6_out1 <= 4
  timePath_icmp_20_in2 <= 4
  -timePath_cst_6_out1 + timePath_icmp_20_in2 >= -0
  timePath_icmp_20_out1 <= 4
  timePath_fork_4_in1 <= 4
  -timePath_icmp_20_out1 + timePath_fork_4_in1 >= -0
  timePath_forkC_1_out1 <= 4
  timePath_buffer_bx_op_1_in1 <= 4
  -timePath_forkC_1_out1 + timePath_buffer_bx_op_1_in1 >= -8
  timePath_buffer_bx_op_1_out1 <= 4
  timePath_branchC_0_in1 <= 4
  -timePath_buffer_bx_op_1_out1 + timePath_branchC_0_in1 >= -0
  timePath_branchC_0_out2 <= 4
  timePath_phiC_0_in2 <= 4
  timePath_phiC_0_in2 - timePath_branchC_0_out2 >= -0
  timePath_branchC_0_out1 <= 4
  timePath_sink_0_in1 <= 4
  8 branchC_0_sink_0173_flop - timePath_branchC_0_out1 + timePath_sink_0_in1 >= 0
  timePath_branch_1_out2 <= 4
  timePath_phi_1_in2 <= 4
  timePath_phi_1_in2 - timePath_branch_1_out2 >= -0
  timePath_branch_1_out1 <= 4
  timePath_sink_1_in1 <= 4
  8 branch_1_sink_1174_flop - timePath_branch_1_out1 + timePath_sink_1_in1 >= 0
  timePath_branch_7_out2 <= 4
  timePath_ret_0_in1 <= 4
  8 branch_7_ret_0161_flop - timePath_branch_7_out2 + timePath_ret_0_in1 >= 0
  timePath_branch_7_out1 <= 4
  timePath_sink_4_in1 <= 4
  8 branch_7_sink_4177_flop - timePath_branch_7_out1 + timePath_sink_4_in1 >= 0
  timePath_fork_2_out1 <= 4
  timePath_store_0_in1 <= 4
  timePath_store_0_in1 - timePath_fork_2_out1 >= -0
  timePath_fork_2_out2 <= 4
  timePath_branch_7_in1 <= 4
  timePath_branch_7_in1 - timePath_fork_2_out2 >= -0
  timePath_fork_3_out1 <= 4
  timePath_icmp_20_in1 <= 4
  timePath_icmp_20_in1 - timePath_fork_3_out1 >= -0
  timePath_fork_3_out2 <= 4
  timePath_branch_1_in1 <= 4
  timePath_branch_1_in1 - timePath_fork_3_out2 >= -0
  timePath_fork_4_out2 <= 4
  timePath_phi_n1_in2 <= 4
  timePath_phi_n1_in2 - timePath_fork_4_out2 >= -0
  timePath_fork_4_out5 <= 4
  timePath_branchC_10_in2 <= 4
  timePath_branchC_10_in2 - timePath_fork_4_out5 >= -0
  timePath_fork_4_out1 <= 4
  timePath_branchC_0_in2 <= 4
  timePath_branchC_0_in2 - timePath_fork_4_out1 >= -0
  timePath_fork_4_out3 <= 4
  timePath_branch_1_in2 <= 4
  timePath_branch_1_in2 - timePath_fork_4_out3 >= -0
  timePath_fork_4_out4 <= 4
  timePath_branch_7_in2 <= 4
  timePath_branch_7_in2 - timePath_fork_4_out4 >= -0
  timePath_ret_0_out1 <= 4
  timePath_end_0_in3 <= 4
  8 ret_0_end_0182_flop - timePath_ret_0_out1 + timePath_end_0_in3 >= 0
  -timePath_cst_0_in1 + timePath_cst_0_out1 >= 0
  -timePath_cst_7_in1 + timePath_cst_7_out1 >= 0
  -timePath_forkC_5_in1 + timePath_forkC_5_out1 >= 0
  -timePath_forkC_5_in1 + timePath_forkC_5_out2 >= 0
  -timePath_forkC_5_in1 + timePath_forkC_5_out3 >= 0
  -timePath_forkC_5_in1 + timePath_forkC_5_out4 >= 0
  -timePath_phi_1_in1 + timePath_phi_1_out1 >= 0.366
  -timePath_phi_1_in2 + timePath_phi_1_out1 >= 0.366
  -timePath_phi_1_in3 + timePath_phi_1_out1 >= 0.366
  timePath_load_4_out1 = 0
  timePath_load_4_out2 = 0
  timePath_load_4_in1 <= 4
  timePath_load_4_in2 <= 4
  timePath_load_7_out1 = 0
  timePath_load_7_out2 = 0
  timePath_load_7_in1 <= 4
  timePath_load_7_in2 <= 4
  -timePath_cst_1_in1 + timePath_cst_1_out1 >= 0
  -timePath_icmp_8_in1 + timePath_icmp_8_out1 >= 1.53
  -timePath_icmp_8_in2 + timePath_icmp_8_out1 >= 1.53
  -timePath_cst_4_in1 + timePath_cst_4_out1 >= 0
  -timePath_forkC_0_in1 + timePath_forkC_0_out1 >= 0
  -timePath_forkC_0_in1 + timePath_forkC_0_out2 >= 0
  timePath_buffer_bx_op_0_out1 = 0
  timePath_buffer_bx_op_0_in1 <= 4
  -timePath_phiC_0_in1 + timePath_phiC_0_out1 >= 0.166
  -timePath_phiC_0_in2 + timePath_phiC_0_out1 >= 0.166
  -timePath_phiC_0_in3 + timePath_phiC_0_out1 >= 0.166
  -timePath_phi_n1_in1 + timePath_phi_n1_out1 >= 0.366
  -timePath_phi_n1_in2 + timePath_phi_n1_out1 >= 0.366
  -timePath_phiC_2_in1 + timePath_phiC_2_out1 >= 0.166
  -timePath_phiC_2_in2 + timePath_phiC_2_out1 >= 0.166
  -timePath_phiC_2_in3 + timePath_phiC_2_out1 >= 0.166
  -timePath_branch_2_in1 + timePath_branch_2_out1 >= 0
  -timePath_branch_2_in2 + timePath_branch_2_out1 >= 0
  -timePath_branch_2_in1 + timePath_branch_2_out2 >= 0
  -timePath_branch_2_in2 + timePath_branch_2_out2 >= 0
  -timePath_branch_6_in1 + timePath_branch_6_out1 >= 0
  -timePath_branch_6_in2 + timePath_branch_6_out1 >= 0
  -timePath_branch_6_in1 + timePath_branch_6_out2 >= 0
  -timePath_branch_6_in2 + timePath_branch_6_out2 >= 0
  -timePath_branchC_8_in1 + timePath_branchC_8_out1 >= 0
  -timePath_branchC_8_in2 + timePath_branchC_8_out1 >= 0
  -timePath_branchC_8_in1 + timePath_branchC_8_out2 >= 0
  -timePath_branchC_8_in2 + timePath_branchC_8_out2 >= 0
  -timePath_branchC_10_in1 + timePath_branchC_10_out1 >= 0
  -timePath_branchC_10_in2 + timePath_branchC_10_out1 >= 0
  -timePath_branchC_10_in1 + timePath_branchC_10_out2 >= 0
  -timePath_branchC_10_in2 + timePath_branchC_10_out2 >= 0
  -timePath_fork_0_in1 + timePath_fork_0_out1 >= 0
  -timePath_fork_0_in1 + timePath_fork_0_out2 >= 0
  -timePath_fork_1_in1 + timePath_fork_1_out1 >= 0
  -timePath_fork_1_in1 + timePath_fork_1_out2 >= 0
  -timePath_fork_1_in1 + timePath_fork_1_out3 >= 0
  -timePath_fork_1_in1 + timePath_fork_1_out4 >= 0
  -timePath_fork_6_in1 + timePath_fork_6_out1 >= 0
  -timePath_fork_6_in1 + timePath_fork_6_out2 >= 0
  -timePath_fork_6_in1 + timePath_fork_6_out3 >= 0
  -timePath_forkC_7_in1 + timePath_forkC_7_out1 >= 0
  -timePath_forkC_7_in1 + timePath_forkC_7_out2 >= 0
  -timePath_forkC_7_in1 + timePath_forkC_7_out3 >= 0
  -timePath_forkC_7_in1 + timePath_forkC_7_out4 >= 0
  -timePath_forkC_7_in1 + timePath_forkC_7_out5 >= 0
  -timePath_forkC_7_in1 + timePath_forkC_7_out6 >= 0
  -timePath_fork_10_in1 + timePath_fork_10_out1 >= 0
  -timePath_fork_10_in1 + timePath_fork_10_out2 >= 0
  -timePath_fork_11_in1 + timePath_fork_11_out1 >= 0
  -timePath_fork_11_in1 + timePath_fork_11_out2 >= 0
  timePath_mul_10_out1 = 0
  timePath_mul_10_in1 <= 4
  timePath_mul_10_in2 <= 4
  -timePath_cst_2_in1 + timePath_cst_2_out1 >= 0
  -timePath_add_11_in1 + timePath_add_11_out1 >= 1.693
  -timePath_add_11_in2 + timePath_add_11_out1 >= 1.693
  timePath_mul_12_out1 = 0
  timePath_mul_12_in1 <= 4
  timePath_mul_12_in2 <= 4
  -timePath_cst_3_in1 + timePath_cst_3_out1 >= 0
  -timePath_add_13_in1 + timePath_add_13_out1 >= 1.693
  -timePath_add_13_in2 + timePath_add_13_out1 >= 1.693
  timePath_mul_14_out1 = 0
  timePath_mul_14_in1 <= 4
  timePath_mul_14_in2 <= 4
  -timePath_fork_8_in1 + timePath_fork_8_out1 >= 0
  -timePath_fork_8_in1 + timePath_fork_8_out2 >= 0
  -timePath_fork_8_in1 + timePath_fork_8_out3 >= 0
  -timePath_fork_8_in1 + timePath_fork_8_out4 >= 0
  -timePath_forkC_9_in1 + timePath_forkC_9_out1 >= 0
  -timePath_forkC_9_in1 + timePath_forkC_9_out2 >= 0
  -timePath_phi_16_in1 + timePath_phi_16_out1 >= 0.366
  -timePath_phi_16_in2 + timePath_phi_16_out1 >= 0.366
  -timePath_phi_16_in3 + timePath_phi_16_out1 >= 0.366
  -timePath_store_0_in1 + timePath_store_0_out1 >= 0
  -timePath_store_0_in2 + timePath_store_0_out1 >= 0
  -timePath_store_0_in1 + timePath_store_0_out2 >= 0
  -timePath_store_0_in2 + timePath_store_0_out2 >= 0
  -timePath_cst_5_in1 + timePath_cst_5_out1 >= 0
  -timePath_add_19_in1 + timePath_add_19_out1 >= 1.693
  -timePath_add_19_in2 + timePath_add_19_out1 >= 1.693
  -timePath_cst_6_in1 + timePath_cst_6_out1 >= 0
  -timePath_icmp_20_in1 + timePath_icmp_20_out1 >= 1.53
  -timePath_icmp_20_in2 + timePath_icmp_20_out1 >= 1.53
  -timePath_forkC_1_in1 + timePath_forkC_1_out1 >= 0
  -timePath_forkC_1_in1 + timePath_forkC_1_out2 >= 0
  timePath_buffer_bx_op_1_out1 = 0
  timePath_buffer_bx_op_1_in1 <= 4
  -timePath_branchC_0_in1 + timePath_branchC_0_out1 >= 0
  -timePath_branchC_0_in2 + timePath_branchC_0_out1 >= 0
  -timePath_branchC_0_in1 + timePath_branchC_0_out2 >= 0
  -timePath_branchC_0_in2 + timePath_branchC_0_out2 >= 0
  -timePath_branch_1_in1 + timePath_branch_1_out1 >= 0
  -timePath_branch_1_in2 + timePath_branch_1_out1 >= 0
  -timePath_branch_1_in1 + timePath_branch_1_out2 >= 0
  -timePath_branch_1_in2 + timePath_branch_1_out2 >= 0
  -timePath_branch_7_in1 + timePath_branch_7_out1 >= 0
  -timePath_branch_7_in2 + timePath_branch_7_out1 >= 0
  -timePath_branch_7_in1 + timePath_branch_7_out2 >= 0
  -timePath_branch_7_in2 + timePath_branch_7_out2 >= 0
  -timePath_fork_2_in1 + timePath_fork_2_out1 >= 0
  -timePath_fork_2_in1 + timePath_fork_2_out2 >= 0
  -timePath_fork_3_in1 + timePath_fork_3_out1 >= 0
  -timePath_fork_3_in1 + timePath_fork_3_out2 >= 0
  -timePath_fork_4_in1 + timePath_fork_4_out1 >= 0
  -timePath_fork_4_in1 + timePath_fork_4_out2 >= 0
  -timePath_fork_4_in1 + timePath_fork_4_out3 >= 0
  -timePath_fork_4_in1 + timePath_fork_4_out4 >= 0
  -timePath_fork_4_in1 + timePath_fork_4_out5 >= 0
  -timePath_ret_0_in1 + timePath_ret_0_out1 >= 0
  -timePath_LSQ_A_in1 + timePath_LSQ_A_out1 >= 0
  -timePath_LSQ_A_in2 + timePath_LSQ_A_out1 >= 0
  -timePath_LSQ_A_in3 + timePath_LSQ_A_out1 >= 0
  -timePath_LSQ_A_in4 + timePath_LSQ_A_out1 >= 0
  -timePath_LSQ_A_in5 + timePath_LSQ_A_out1 >= 0
  -timePath_LSQ_A_in1 + timePath_LSQ_A_out2 >= 0
  -timePath_LSQ_A_in2 + timePath_LSQ_A_out2 >= 0
  -timePath_LSQ_A_in3 + timePath_LSQ_A_out2 >= 0
  -timePath_LSQ_A_in4 + timePath_LSQ_A_out2 >= 0
  -timePath_LSQ_A_in5 + timePath_LSQ_A_out2 >= 0
  -timePath_MC_addr_in1 + timePath_MC_addr_out1 >= 0
  -timePath_MC_addr_in1 + timePath_MC_addr_out2 >= 0
  60 cst_0_phi_113_flop - timeElastic_cst_0_out1 + timeElastic_phi_1_in3 >= 0
  60 start_0_forkC_56_flop - timeElastic_start_0_out1 + timeElastic_forkC_5_in1 >= 0
  60 cst_7_phi_n139_flop - timeElastic_cst_7_out1 + timeElastic_phi_n1_in1 >= 0
  60 forkC_5_cst_00_flop + timeElastic_cst_0_in1 - timeElastic_forkC_5_out1 >= 0
  60 forkC_5_cst_74_flop + timeElastic_cst_7_in1 - timeElastic_forkC_5_out3 >= 0
  60 forkC_5_phiC_037_flop - timeElastic_forkC_5_out4 + timeElastic_phiC_0_in3 >= 0
  60 forkC_5_phiC_244_flop - timeElastic_forkC_5_out2 + timeElastic_phiC_2_in3 >= 0
  -timeElastic_phi_1_out1 + timeElastic_fork_0_in1 >= -60
  -timeElastic_load_4_out1 + timeElastic_fork_10_in1 >= -0
  -timeElastic_load_7_out1 + timeElastic_fork_11_in1 >= -0
  -timeElastic_cst_1_out1 + timeElastic_icmp_8_in2 >= -0
  -timeElastic_icmp_8_out1 + timeElastic_fork_1_in1 >= -0
  -timeElastic_cst_4_out1 + timeElastic_branch_6_in1 >= -0
  -timeElastic_forkC_0_out1 + timeElastic_buffer_bx_op_0_in1 >= -60
  -timeElastic_buffer_bx_op_0_out1 + timeElastic_forkC_1_in1 >= -0
  timeElastic_forkC_0_in1 - timeElastic_phiC_0_out1 >= -0
  -timeElastic_phi_n1_out1 + timeElastic_fork_6_in1 >= -0
  -timeElastic_phiC_2_out1 + timeElastic_forkC_7_in1 >= -60
  -timeElastic_branch_2_out2 + timeElastic_fork_8_in1 >= -0
  60 branch_2_sink_2175_flop - timeElastic_branch_2_out1 + timeElastic_sink_2_in1 >= 0
  -timeElastic_branch_6_out2 + timeElastic_phi_16_in3 >= -0
  60 branch_6_sink_3176_flop - timeElastic_branch_6_out1 + timeElastic_sink_3_in1 >= 0
  -timeElastic_branchC_8_out2 + timeElastic_forkC_9_in1 >= -0
  60 branchC_8_sink_5178_flop - timeElastic_branchC_8_out1 + timeElastic_sink_5_in1 >= 0
  timeElastic_phiC_2_in2 - timeElastic_branchC_10_out2 >= -0
  60 branchC_10_sink_6179_flop - timeElastic_branchC_10_out1 + timeElastic_sink_6_in1 >= 0
  timeElastic_load_4_in2 - timeElastic_fork_0_out2 >= -0
  -timeElastic_fork_0_out1 + timeElastic_add_19_in1 >= -0
  timeElastic_branch_2_in2 - timeElastic_fork_1_out1 >= -0
  timeElastic_branch_6_in2 - timeElastic_fork_1_out2 >= -0
  timeElastic_branchC_8_in2 - timeElastic_fork_1_out3 >= -0
  -timeElastic_fork_1_out4 + timeElastic_phi_16_in1 >= -0
  timeElastic_phi_1_in1 - timeElastic_fork_6_out2 >= -0
  timeElastic_phiC_0_in1 - timeElastic_fork_6_out1 >= -0
  timeElastic_phiC_2_in1 - timeElastic_fork_6_out3 >= -0
  timeElastic_cst_1_in1 - timeElastic_forkC_7_out1 >= -60
  timeElastic_cst_4_in1 - timeElastic_forkC_7_out4 >= -60
  timeElastic_branchC_8_in1 - timeElastic_forkC_7_out3 >= -0
  timeElastic_branchC_10_in1 - timeElastic_forkC_7_out2 >= -0
  -timeElastic_forkC_7_out5 + timeElastic_cst_5_in1 >= -0
  -timeElastic_forkC_7_out6 + timeElastic_cst_6_in1 >= -0
  timeElastic_load_7_in2 - timeElastic_fork_10_out1 >= -0
  -timeElastic_fork_10_out2 + timeElastic_store_0_in2 >= -0
  timeElastic_icmp_8_in1 - timeElastic_fork_11_out1 >= -0
  timeElastic_branch_2_in1 - timeElastic_fork_11_out2 >= -0
  -timeElastic_mul_10_out1 + timeElastic_add_11_in1 >= -0
  -timeElastic_cst_2_out1 + timeElastic_add_11_in2 >= -0
  -timeElastic_add_11_out1 + timeElastic_mul_12_in1 >= -0
  -timeElastic_mul_12_out1 + timeElastic_add_13_in1 >= -0
  -timeElastic_cst_3_out1 + timeElastic_add_13_in2 >= -0
  -timeElastic_add_13_out1 + timeElastic_mul_14_in1 >= -0
  -timeElastic_mul_14_out1 + timeElastic_phi_16_in2 >= -0
  timeElastic_mul_10_in1 - timeElastic_fork_8_out1 >= -0
  timeElastic_mul_10_in2 - timeElastic_fork_8_out2 >= -0
  timeElastic_mul_12_in2 - timeElastic_fork_8_out3 >= -0
  timeElastic_mul_14_in2 - timeElastic_fork_8_out4 >= -0
  timeElastic_cst_2_in1 - timeElastic_forkC_9_out1 >= -0
  timeElastic_cst_3_in1 - timeElastic_forkC_9_out2 >= -0
  -timeElastic_phi_16_out1 + timeElastic_fork_2_in1 >= -0
  -timeElastic_cst_5_out1 + timeElastic_add_19_in2 >= -0
  -timeElastic_add_19_out1 + timeElastic_fork_3_in1 >= -0
  -timeElastic_cst_6_out1 + timeElastic_icmp_20_in2 >= -0
  -timeElastic_icmp_20_out1 + timeElastic_fork_4_in1 >= -0
  -timeElastic_forkC_1_out1 + timeElastic_buffer_bx_op_1_in1 >= -60
  -timeElastic_buffer_bx_op_1_out1 + timeElastic_branchC_0_in1 >= -0
  timeElastic_phiC_0_in2 - timeElastic_branchC_0_out2 >= -0
  60 branchC_0_sink_0173_flop - timeElastic_branchC_0_out1 + timeElastic_sink_0_in1 >= 0
  timeElastic_phi_1_in2 - timeElastic_branch_1_out2 >= -0
  60 branch_1_sink_1174_flop - timeElastic_branch_1_out1 + timeElastic_sink_1_in1 >= 0
  60 branch_7_ret_0161_flop - timeElastic_branch_7_out2 + timeElastic_ret_0_in1 >= 0
  60 branch_7_sink_4177_flop - timeElastic_branch_7_out1 + timeElastic_sink_4_in1 >= 0
  timeElastic_store_0_in1 - timeElastic_fork_2_out1 >= -0
  timeElastic_branch_7_in1 - timeElastic_fork_2_out2 >= -0
  timeElastic_icmp_20_in1 - timeElastic_fork_3_out1 >= -0
  timeElastic_branch_1_in1 - timeElastic_fork_3_out2 >= -0
  timeElastic_phi_n1_in2 - timeElastic_fork_4_out2 >= -0
  timeElastic_branchC_10_in2 - timeElastic_fork_4_out5 >= -0
  timeElastic_branchC_0_in2 - timeElastic_fork_4_out1 >= -0
  timeElastic_branch_1_in2 - timeElastic_fork_4_out3 >= -0
  timeElastic_branch_7_in2 - timeElastic_fork_4_out4 >= -0
  60 ret_0_end_0182_flop - timeElastic_ret_0_out1 + timeElastic_end_0_in3 >= 0
  -timeElastic_cst_0_in1 + timeElastic_cst_0_out1 >= 1
  -timeElastic_cst_7_in1 + timeElastic_cst_7_out1 >= 1
  -timeElastic_forkC_5_in1 + timeElastic_forkC_5_out1 >= 1
  -timeElastic_forkC_5_in1 + timeElastic_forkC_5_out2 >= 1
  -timeElastic_forkC_5_in1 + timeElastic_forkC_5_out3 >= 1
  -timeElastic_forkC_5_in1 + timeElastic_forkC_5_out4 >= 1
  -timeElastic_phi_1_in1 + timeElastic_phi_1_out1 >= 1
  -timeElastic_phi_1_in2 + timeElastic_phi_1_out1 >= 1
  -timeElastic_phi_1_in3 + timeElastic_phi_1_out1 >= 1
  -timeElastic_load_4_in1 + timeElastic_load_4_out1 >= 1
  -timeElastic_load_4_in2 + timeElastic_load_4_out1 >= 1
  -timeElastic_load_4_in1 + timeElastic_load_4_out2 >= 1
  -timeElastic_load_4_in2 + timeElastic_load_4_out2 >= 1
  -timeElastic_load_7_in1 + timeElastic_load_7_out1 >= 1
  -timeElastic_load_7_in2 + timeElastic_load_7_out1 >= 1
  -timeElastic_load_7_in1 + timeElastic_load_7_out2 >= 1
  -timeElastic_load_7_in2 + timeElastic_load_7_out2 >= 1
  -timeElastic_cst_1_in1 + timeElastic_cst_1_out1 >= 1
  -timeElastic_icmp_8_in1 + timeElastic_icmp_8_out1 >= 1
  -timeElastic_icmp_8_in2 + timeElastic_icmp_8_out1 >= 1
  -timeElastic_cst_4_in1 + timeElastic_cst_4_out1 >= 1
  -timeElastic_forkC_0_in1 + timeElastic_forkC_0_out1 >= 1
  -timeElastic_forkC_0_in1 + timeElastic_forkC_0_out2 >= 1
  -timeElastic_buffer_bx_op_0_in1 + timeElastic_buffer_bx_op_0_out1 >= 1
  -timeElastic_phiC_0_in1 + timeElastic_phiC_0_out1 >= 1
  -timeElastic_phiC_0_in2 + timeElastic_phiC_0_out1 >= 1
  -timeElastic_phiC_0_in3 + timeElastic_phiC_0_out1 >= 1
  -timeElastic_phi_n1_in1 + timeElastic_phi_n1_out1 >= 1
  -timeElastic_phi_n1_in2 + timeElastic_phi_n1_out1 >= 1
  -timeElastic_phiC_2_in1 + timeElastic_phiC_2_out1 >= 1
  -timeElastic_phiC_2_in2 + timeElastic_phiC_2_out1 >= 1
  -timeElastic_phiC_2_in3 + timeElastic_phiC_2_out1 >= 1
  -timeElastic_branch_2_in1 + timeElastic_branch_2_out1 >= 1
  -timeElastic_branch_2_in2 + timeElastic_branch_2_out1 >= 1
  -timeElastic_branch_2_in1 + timeElastic_branch_2_out2 >= 1
  -timeElastic_branch_2_in2 + timeElastic_branch_2_out2 >= 1
  -timeElastic_branch_6_in1 + timeElastic_branch_6_out1 >= 1
  -timeElastic_branch_6_in2 + timeElastic_branch_6_out1 >= 1
  -timeElastic_branch_6_in1 + timeElastic_branch_6_out2 >= 1
  -timeElastic_branch_6_in2 + timeElastic_branch_6_out2 >= 1
  -timeElastic_branchC_8_in1 + timeElastic_branchC_8_out1 >= 1
  -timeElastic_branchC_8_in2 + timeElastic_branchC_8_out1 >= 1
  -timeElastic_branchC_8_in1 + timeElastic_branchC_8_out2 >= 1
  -timeElastic_branchC_8_in2 + timeElastic_branchC_8_out2 >= 1
  -timeElastic_branchC_10_in1 + timeElastic_branchC_10_out1 >= 1
  -timeElastic_branchC_10_in2 + timeElastic_branchC_10_out1 >= 1
  -timeElastic_branchC_10_in1 + timeElastic_branchC_10_out2 >= 1
  -timeElastic_branchC_10_in2 + timeElastic_branchC_10_out2 >= 1
  -timeElastic_fork_0_in1 + timeElastic_fork_0_out1 >= 1
  -timeElastic_fork_0_in1 + timeElastic_fork_0_out2 >= 1
  -timeElastic_fork_1_in1 + timeElastic_fork_1_out1 >= 1
  -timeElastic_fork_1_in1 + timeElastic_fork_1_out2 >= 1
  -timeElastic_fork_1_in1 + timeElastic_fork_1_out3 >= 1
  -timeElastic_fork_1_in1 + timeElastic_fork_1_out4 >= 1
  -timeElastic_fork_6_in1 + timeElastic_fork_6_out1 >= 1
  -timeElastic_fork_6_in1 + timeElastic_fork_6_out2 >= 1
  -timeElastic_fork_6_in1 + timeElastic_fork_6_out3 >= 1
  -timeElastic_forkC_7_in1 + timeElastic_forkC_7_out1 >= 1
  -timeElastic_forkC_7_in1 + timeElastic_forkC_7_out2 >= 1
  -timeElastic_forkC_7_in1 + timeElastic_forkC_7_out3 >= 1
  -timeElastic_forkC_7_in1 + timeElastic_forkC_7_out4 >= 1
  -timeElastic_forkC_7_in1 + timeElastic_forkC_7_out5 >= 1
  -timeElastic_forkC_7_in1 + timeElastic_forkC_7_out6 >= 1
  -timeElastic_fork_10_in1 + timeElastic_fork_10_out1 >= 1
  -timeElastic_fork_10_in1 + timeElastic_fork_10_out2 >= 1
  -timeElastic_fork_11_in1 + timeElastic_fork_11_out1 >= 1
  -timeElastic_fork_11_in1 + timeElastic_fork_11_out2 >= 1
  -timeElastic_mul_10_in1 + timeElastic_mul_10_out1 >= 1
  -timeElastic_mul_10_in2 + timeElastic_mul_10_out1 >= 1
  -timeElastic_cst_2_in1 + timeElastic_cst_2_out1 >= 1
  -timeElastic_add_11_in1 + timeElastic_add_11_out1 >= 1
  -timeElastic_add_11_in2 + timeElastic_add_11_out1 >= 1
  -timeElastic_mul_12_in1 + timeElastic_mul_12_out1 >= 1
  -timeElastic_mul_12_in2 + timeElastic_mul_12_out1 >= 1
  -timeElastic_cst_3_in1 + timeElastic_cst_3_out1 >= 1
  -timeElastic_add_13_in1 + timeElastic_add_13_out1 >= 1
  -timeElastic_add_13_in2 + timeElastic_add_13_out1 >= 1
  -timeElastic_mul_14_in1 + timeElastic_mul_14_out1 >= 1
  -timeElastic_mul_14_in2 + timeElastic_mul_14_out1 >= 1
  -timeElastic_fork_8_in1 + timeElastic_fork_8_out1 >= 1
  -timeElastic_fork_8_in1 + timeElastic_fork_8_out2 >= 1
  -timeElastic_fork_8_in1 + timeElastic_fork_8_out3 >= 1
  -timeElastic_fork_8_in1 + timeElastic_fork_8_out4 >= 1
  -timeElastic_forkC_9_in1 + timeElastic_forkC_9_out1 >= 1
  -timeElastic_forkC_9_in1 + timeElastic_forkC_9_out2 >= 1
  -timeElastic_phi_16_in1 + timeElastic_phi_16_out1 >= 1
  -timeElastic_phi_16_in2 + timeElastic_phi_16_out1 >= 1
  -timeElastic_phi_16_in3 + timeElastic_phi_16_out1 >= 1
  -timeElastic_store_0_in1 + timeElastic_store_0_out1 >= 1
  -timeElastic_store_0_in2 + timeElastic_store_0_out1 >= 1
  -timeElastic_store_0_in1 + timeElastic_store_0_out2 >= 1
  -timeElastic_store_0_in2 + timeElastic_store_0_out2 >= 1
  -timeElastic_cst_5_in1 + timeElastic_cst_5_out1 >= 1
  -timeElastic_add_19_in1 + timeElastic_add_19_out1 >= 1
  -timeElastic_add_19_in2 + timeElastic_add_19_out1 >= 1
  -timeElastic_cst_6_in1 + timeElastic_cst_6_out1 >= 1
  -timeElastic_icmp_20_in1 + timeElastic_icmp_20_out1 >= 1
  -timeElastic_icmp_20_in2 + timeElastic_icmp_20_out1 >= 1
  -timeElastic_forkC_1_in1 + timeElastic_forkC_1_out1 >= 1
  -timeElastic_forkC_1_in1 + timeElastic_forkC_1_out2 >= 1
  -timeElastic_buffer_bx_op_1_in1 + timeElastic_buffer_bx_op_1_out1 >= 1
  -timeElastic_branchC_0_in1 + timeElastic_branchC_0_out1 >= 1
  -timeElastic_branchC_0_in2 + timeElastic_branchC_0_out1 >= 1
  -timeElastic_branchC_0_in1 + timeElastic_branchC_0_out2 >= 1
  -timeElastic_branchC_0_in2 + timeElastic_branchC_0_out2 >= 1
  -timeElastic_branch_1_in1 + timeElastic_branch_1_out1 >= 1
  -timeElastic_branch_1_in2 + timeElastic_branch_1_out1 >= 1
  -timeElastic_branch_1_in1 + timeElastic_branch_1_out2 >= 1
  -timeElastic_branch_1_in2 + timeElastic_branch_1_out2 >= 1
  -timeElastic_branch_7_in1 + timeElastic_branch_7_out1 >= 1
  -timeElastic_branch_7_in2 + timeElastic_branch_7_out1 >= 1
  -timeElastic_branch_7_in1 + timeElastic_branch_7_out2 >= 1
  -timeElastic_branch_7_in2 + timeElastic_branch_7_out2 >= 1
  -timeElastic_fork_2_in1 + timeElastic_fork_2_out1 >= 1
  -timeElastic_fork_2_in1 + timeElastic_fork_2_out2 >= 1
  -timeElastic_fork_3_in1 + timeElastic_fork_3_out1 >= 1
  -timeElastic_fork_3_in1 + timeElastic_fork_3_out2 >= 1
  -timeElastic_fork_4_in1 + timeElastic_fork_4_out1 >= 1
  -timeElastic_fork_4_in1 + timeElastic_fork_4_out2 >= 1
  -timeElastic_fork_4_in1 + timeElastic_fork_4_out3 >= 1
  -timeElastic_fork_4_in1 + timeElastic_fork_4_out4 >= 1
  -timeElastic_fork_4_in1 + timeElastic_fork_4_out5 >= 1
  -timeElastic_ret_0_in1 + timeElastic_ret_0_out1 >= 1
  -timeElastic_LSQ_A_in1 + timeElastic_LSQ_A_out1 >= 1
  -timeElastic_LSQ_A_in2 + timeElastic_LSQ_A_out1 >= 1
  -timeElastic_LSQ_A_in3 + timeElastic_LSQ_A_out1 >= 1
  -timeElastic_LSQ_A_in4 + timeElastic_LSQ_A_out1 >= 1
  -timeElastic_LSQ_A_in5 + timeElastic_LSQ_A_out1 >= 1
  -timeElastic_LSQ_A_in1 + timeElastic_LSQ_A_out2 >= 1
  -timeElastic_LSQ_A_in2 + timeElastic_LSQ_A_out2 >= 1
  -timeElastic_LSQ_A_in3 + timeElastic_LSQ_A_out2 >= 1
  -timeElastic_LSQ_A_in4 + timeElastic_LSQ_A_out2 >= 1
  -timeElastic_LSQ_A_in5 + timeElastic_LSQ_A_out2 >= 1
  -timeElastic_MC_addr_in1 + timeElastic_MC_addr_out1 >= 1
  -timeElastic_MC_addr_in1 + timeElastic_MC_addr_out2 >= 1
Binary
  cst_0_phi_113_flop start_0_forkC_56_flop cst_7_phi_n139_flop forkC_5_cst_00_flop forkC_5_cst_74_flop forkC_5_phiC_037_flop forkC_5_phiC_244_flop load_4_MC_addr170_flop load_7_LSQ_A165_flop forkC_0_LSQ_A163_flop branch_2_sink_2175_flop branch_6_sink_3176_flop branchC_8_sink_5178_flop branchC_10_sink_6179_flop store_0_LSQ_A166_flop store_0_LSQ_A167_flop forkC_1_LSQ_A164_flop branchC_0_sink_0173_flop branch_1_sink_1174_flop branch_7_ret_0161_flop branch_7_sink_4177_flop ret_0_end_0182_flop LSQ_A_load_719_flop LSQ_A_end_0180_flop MC_addr_load_415_flop MC_addr_end_0181_flop
End
